100 232,6219 94,62445 80,1651
200 7806,3835 3626,7144749999998 2228,9577
300 19784,3995 9172,28565 8881,1619
400 1966,8957 556,3242 530,3754
500 7507,292 4373,278875 3619,4608
600 2148,6572 251,8198 102,3799
700 2612,4594 1010,6196 1009,4118
800 14198,8622 5663,527425 5228,638
900 920,2598 720,72215 439,1014
1000 15942,4079 4625,999275 4339,4294
